%%MatrixMarket matrix coordinate integer general
% toy 10x-like sparse matrix for smoke tests (50 genes x 80 cells)
50 80 200
1 1 1
2 2 1
3 3 1
4 4 1
5 5 1
6 6 1
7 7 1
8 8 1
9 9 1
10 10 1
11 11 1
12 12 1
13 13 1
14 14 1
15 15 1
16 16 1
17 17 1
18 18 1
19 19 1
20 20 1
21 21 1
22 22 1
23 23 1
24 24 1
25 25 1
26 26 1
27 27 1
28 28 1
29 29 1
30 30 1
31 31 1
32 32 1
33 33 1
34 34 1
35 35 1
36 36 1
37 37 1
38 38 1
39 39 1
40 40 1
41 41 1
42 42 1
43 43 1
44 44 1
45 45 1
46 46 1
47 47 1
48 48 1
49 49 1
50 50 1
1 2 2
2 3 2
3 4 2
4 5 2
5 6 2
6 7 2
7 8 2
8 9 2
9 10 2
10 11 2
11 12 2
12 13 2
13 14 2
14 15 2
15 16 2
16 17 2
17 18 2
18 19 2
19 20 2
20 21 2
21 22 2
22 23 2
23 24 2
24 25 2
25 26 2
26 27 2
27 28 2
28 29 2
29 30 2
30 31 2
31 32 2
32 33 2
33 34 2
34 35 2
35 36 2
36 37 2
37 38 2
38 39 2
39 40 2
40 41 2
41 42 2
42 43 2
43 44 2
44 45 2
45 46 2
46 47 2
47 48 2
48 49 2
49 50 2
50 1 2
1 3 3
2 4 3
3 5 3
4 6 3
5 7 3
6 8 3
7 9 3
8 10 3
9 11 3
10 12 3
11 13 3
12 14 3
13 15 3
14 16 3
15 17 3
16 18 3
17 19 3
18 20 3
19 21 3
20 22 3
21 23 3
22 24 3
23 25 3
24 26 3
25 27 3
26 28 3
27 29 3
28 30 3
29 31 3
30 32 3
31 33 3
32 34 3
33 35 3
34 36 3
35 37 3
36 38 3
37 39 3
38 40 3
39 41 3
40 42 3
41 43 3
42 44 3
43 45 3
44 46 3
45 47 3
46 48 3
47 49 3
48 50 3
49 1 3
50 2 3
1 4 4
2 5 4
3 6 4
4 7 4
5 8 4
6 9 4
7 10 4
8 11 4
9 12 4
10 13 4
11 14 4
12 15 4
13 16 4
14 17 4
15 18 4
16 19 4
17 20 4
18 21 4
19 22 4
20 23 4
21 24 4
22 25 4
23 26 4
24 27 4
25 28 4
26 29 4
27 30 4
28 31 4
29 32 4
30 33 4
31 34 4
32 35 4
33 36 4
34 37 4
35 38 4
36 39 4
37 40 4
38 41 4
39 42 4
40 43 4
41 44 4
42 45 4
43 46 4
44 47 4
45 48 4
46 49 4
47 50 4
48 1 4
49 2 4
50 3 4
